73 73
3 49
18 43
17 52
1 61
34 41
3 30
34 4
26 7
30 55
35 32
6 51
12 1
22 6
35 58
7 63
27 45
25 5
33 14
9 36
9 62
24 23
24 35
27 13
28 11
8 54
30 25
2 73
26 27
19 60
15 34
12 67
36 29
13 53
31 59
14 33
20 72
28 40
11 56
10 16
17 37
2 47
10 26
4 9
33 42
15 68
5 66
21 8
29 71
25 19
18 28
5 64
11 21
8 44
16 20
23 18
1 12
6 38
19 2
32 48
32 57
4 22
36 46
14 70
13 50
1 17
23 3
29 69
31 65
22 31
16 39
21 10
20 15
7 24
